certificates/rado_a11_c268_N31.cnf
c Rad2 upper bound instance: x1 + 11*x2 - x3 = 268, interval [1,31]
p cnf 31 174
1 8 25 0
-1 -8 -25 0
1 19 26 0
-1 -19 -26 0
1 27 30 0
-1 -27 -30 0
2 9 25 0
-2 -9 -25 0
2 20 26 0
-2 -20 -26 0
2 27 31 0
-2 -27 -31 0
3 10 25 0
-3 -10 -25 0
3 21 26 0
-3 -21 -26 0
4 11 25 0
-4 -11 -25 0
4 22 26 0
-4 -22 -26 0
1 5 24 0
-1 -5 -24 0
5 12 25 0
-5 -12 -25 0
5 23 26 0
-5 -23 -26 0
2 6 24 0
-2 -6 -24 0
6 13 25 0
-6 -13 -25 0
6 24 26 0
-6 -24 -26 0
3 7 24 0
-3 -7 -24 0
7 14 25 0
-7 -14 -25 0
7 25 26 0
-7 -25 -26 0
4 8 24 0
-4 -8 -24 0
8 15 25 0
-8 -15 -25 0
8 26 0
-8 -26 0
5 9 24 0
-5 -9 -24 0
9 16 25 0
-9 -16 -25 0
9 26 27 0
-9 -26 -27 0
6 10 24 0
-6 -10 -24 0
10 17 25 0
-10 -17 -25 0
10 26 28 0
-10 -26 -28 0
7 11 24 0
-7 -11 -24 0
11 18 25 0
-11 -18 -25 0
11 26 29 0
-11 -26 -29 0
8 12 24 0
-8 -12 -24 0
12 19 25 0
-12 -19 -25 0
12 26 30 0
-12 -26 -30 0
9 13 24 0
-9 -13 -24 0
13 20 25 0
-13 -20 -25 0
13 26 31 0
-13 -26 -31 0
10 14 24 0
-10 -14 -24 0
14 21 25 0
-14 -21 -25 0
11 15 24 0
-11 -15 -24 0
15 22 25 0
-15 -22 -25 0
1 16 23 0
-1 -16 -23 0
12 16 24 0
-12 -16 -24 0
16 23 25 0
-16 -23 -25 0
2 17 23 0
-2 -17 -23 0
13 17 24 0
-13 -17 -24 0
17 24 25 0
-17 -24 -25 0
3 18 23 0
-3 -18 -23 0
14 18 24 0
-14 -18 -24 0
18 25 0
-18 -25 0
4 19 23 0
-4 -19 -23 0
15 19 24 0
-15 -19 -24 0
19 25 26 0
-19 -25 -26 0
5 20 23 0
-5 -20 -23 0
16 20 24 0
-16 -20 -24 0
20 25 27 0
-20 -25 -27 0
6 21 23 0
-6 -21 -23 0
17 21 24 0
-17 -21 -24 0
21 25 28 0
-21 -25 -28 0
7 22 23 0
-7 -22 -23 0
18 22 24 0
-18 -22 -24 0
22 25 29 0
-22 -25 -29 0
8 23 0
-8 -23 0
19 23 24 0
-19 -23 -24 0
23 25 30 0
-23 -25 -30 0
9 23 24 0
-9 -23 -24 0
20 24 0
-20 -24 0
24 25 31 0
-24 -25 -31 0
10 23 25 0
-10 -23 -25 0
21 24 25 0
-21 -24 -25 0
11 23 26 0
-11 -23 -26 0
22 24 26 0
-22 -24 -26 0
1 22 27 0
-1 -22 -27 0
12 23 27 0
-12 -23 -27 0
23 24 27 0
-23 -24 -27 0
2 22 28 0
-2 -22 -28 0
13 23 28 0
-13 -23 -28 0
24 28 0
-24 -28 0
3 22 29 0
-3 -22 -29 0
14 23 29 0
-14 -23 -29 0
24 25 29 0
-24 -25 -29 0
4 22 30 0
-4 -22 -30 0
15 23 30 0
-15 -23 -30 0
24 26 30 0
-24 -26 -30 0
5 22 31 0
-5 -22 -31 0
16 23 31 0
-16 -23 -31 0
24 27 31 0
-24 -27 -31 0
