certificates/rado_a11_c268_N31.drat
-27 24 -30 -31 0
-23 -30 0
23 -31 0
-24 -31 0
-31 0
24 0
-20 0
-28 0
-26 -23 0
d -26 -5 -23 0
13 0
-9 0
-23 0
-17 0
8 0
16 0
5 0
2 0
-26 0
-4 0
-12 0
-1 0
-6 0
11 0
10 0
27 0
22 0
19 0
30 0
21 0
-7 0
-15 0
-14 0
-18 0
-25 0
0
